Route #1: 1 2 15 14 20 37 31 26 32 27 21 3 8 4 5 9 17 16 28 38 39 52 51 62 61 50 49 60 48 56 59 73 88 98 99 89 82 74 83 96 100 84 90 91 85 76 75 63 64 70 65 71 66 67 78 77 92 93 86 94 79 68 72 80 87 97 95 81 69 55 42 47 54 58 46 36 45 41 35 29 34 44 53 57 43 40 33 22 23 10 11 12 6 24 25 13 18 30 19 7
Cost 45728
